1 106000
2 106000
3 106000
4 106000
5 106000
6 106000
7 106000
8 106000
9 106000
10 106000
11 104966
12 104734
13 104734
14 104734
15 104734
16 102336
17 102336
18 102336
19 102336
20 102336
21 102336
22 102336
23 102250
24 102250
25 102250
26 101284
27 101284
28 101284
29 101284
30 101284
